;; sequence(s): A65423
;; terms: 0 0 2 1 4 2 6 3 8 4 10 5 12 6 14 7 16 8 18 9
;; small program: x div (1 + (x mod 2))
;; fast program: loop(x div 2, x mod 2, x)
(set-logic UFNIA)
(declare-fun small (Int) Int)
(declare-fun f0 (Int) Int)
(declare-fun g0 (Int) Int)
(declare-fun h0 (Int) Int)
(declare-fun u0 (Int Int) Int)
(declare-fun v0 (Int) Int)
(declare-fun fast (Int) Int)
(assert (forall ((x Int)) (= (small x) (div x (+ 1 (mod x 2))))))
(assert (forall ((x Int)) (= (f0 x) (div x 2))))
(assert (forall ((x Int)) (= (g0 x) (mod x 2))))
(assert (forall ((x Int)) (= (h0 x) x)))
(assert (forall ((x Int) (y Int)) (= (u0 x y) (ite (<= x 0) y (f0 (u0 (- x 1) y))))))
(assert (forall ((x Int)) (= (v0 x) (u0 (g0 x) (h0 x)))))
(assert (forall ((x Int)) (= (fast x) (v0 x))))
(assert (exists ((c Int)) (and (>= c 0) (not (= (small c) (fast c))))))
(check-sat)
